192 300 97 94 84 83 100 65 57 67 94 95 50 55 70 89 74 84 66 89 51 50 88 91 71 60 96 81 71 54 97 51 52 67 69 86 74 69 75 81 60 68 75 60 73 69 99 97 77 89 59 79 64 71 94 85 82 63 65 52 68 86 79 95 78 98 80 51 66 54 57 76 72 56 60 69 76 59 90 52 72 99 55 60 69 100 95 50 62 85 78 54 95 56 99 72 53 52 99 95 81 55 95 77 61 55 96 61 89 59 89 85 57 68 96 51 67 64 76 54 99 53 83 68 59 56 90 88 58 62 82 64 67 76 91 53 55 61 64 94 70 77 53 52 96 99 53 87 62 79 91 86 83 99 53 66 54 67 53 62 80 85 50 71 86 92 74 91 77 63 59 97 90 87 73 85 85 76 72 71 80 87 56 87 85 59 52 89 51 56 76 55 65 76 